c
c start with comments
c
p cnf 30 34
7 10 14 -20 22 0
-24 10 -30 0
4 5 -29 6 0
-6 12 0
27 22 -6 -5 -9 0
12 -4 9 0
5 18 -19 -13 0
-20 -11 23 -18 -16 0
-14 -29 -28 -23 21 3 0
-10 8 -9 29 26 0
-23 29 29 0
21 17 17 -25 -30 4 0
8 29 -8 27 -16 0
-3 -10 -6 6 0
12 -3 -21 0
1 1 -28 26 5 24 0
13 14 -2 0
-12 -13 24 0
-20 2 -27 29 0
-10 -8 -10 -18 5 0
20 -29 -24 7 -15 -23 0
2 -23 9 5 -20 0
10 18 -24 0
14 4 29 24 -11 0
-30 -13 -18 -8 -9 0
-17 8 24 -19 -12 13 0
-27 -3 21 -16 -4 0
-12 -17 12 14 0
16 8 -26 11 0
21 3 7 -25 -16 0
4 15 -5 0
-2 -30 -2 0
6 -13 11 0
-11 -7 -14 6 0